instances/shortest_path/discrete/shortest_path_7_16.lp
\ Model nohadani_7_16
\ LP format - for model browsing. Use MPS format to capture full model detail.
\ Signature: 0x917f322750627386
Minimize
  67.74215821775979 y[0,2] + 66.2872536767062 y[0,4]
   + 40.71854614300467 y[1,2] + 39.81205847478876 y[1,3]
   + 58.07753438292642 y[1,4] + 27.01851217221259 y[1,5]
   + 49.65883607174055 y[1,6] + 67.74215821775979 y[2,0]
   + 40.71854614300467 y[2,1] + 34.0147027033899 y[2,3] + 29 y[2,4]
   + 16 y[2,5] + 32.2490309931942 y[2,6] + 39.81205847478876 y[3,1]
   + 34.0147027033899 y[3,2] + 26.0768096208106 y[3,4]
   + 37.16180835212409 y[3,5] + 63.78871373526825 y[3,6]
   + 66.2872536767062 y[4,0] + 58.07753438292642 y[4,1] + 29 y[4,2]
   + 26.0768096208106 y[4,3] + 42.05948168962618 y[4,5]
   + 60.60528029800704 y[4,6] + 27.01851217221259 y[5,1] + 16 y[5,2]
   + 37.16180835212409 y[5,3] + 42.05948168962618 y[5,4] + 28 y[5,6]
   + 49.65883607174055 y[6,1] + 32.2490309931942 y[6,2]
   + 63.78871373526825 y[6,3] + 60.60528029800704 y[6,4] + 28 y[6,5]
   + x[0,2] + x[0,4] + x[1,2] + x[1,3] + x[1,4] + x[1,5] + x[1,6] + x[2,0]
   + x[2,1] + x[2,3] + x[2,4] + x[2,5] + x[2,6] + x[3,1] + x[3,2] + x[3,4]
   + x[3,5] + x[3,6] + x[4,0] + x[4,1] + x[4,2] + x[4,3] + x[4,5] + x[4,6]
   + x[5,1] + x[5,2] + x[5,3] + x[5,4] + x[5,6] + x[6,1] + x[6,2] + x[6,3]
   + x[6,4] + x[6,5] + 6.77421582177598 r[0,2] + 6.62872536767062 r[0,4]
   + 4.071854614300467 r[1,2] + 3.981205847478877 r[1,3]
   + 5.807753438292642 r[1,4] + 2.701851217221259 r[1,5]
   + 4.965883607174055 r[1,6] + 6.77421582177598 r[2,0]
   + 4.071854614300467 r[2,1] + 3.40147027033899 r[2,3] + 2.9 r[2,4]
   + 1.6 r[2,5] + 3.22490309931942 r[2,6] + 3.981205847478877 r[3,1]
   + 3.40147027033899 r[3,2] + 2.60768096208106 r[3,4]
   + 3.716180835212409 r[3,5] + 6.378871373526825 r[3,6]
   + 6.62872536767062 r[4,0] + 5.807753438292642 r[4,1] + 2.9 r[4,2]
   + 2.60768096208106 r[4,3] + 4.205948168962618 r[4,5]
   + 6.060528029800704 r[4,6] + 2.701851217221259 r[5,1] + 1.6 r[5,2]
   + 3.716180835212409 r[5,3] + 4.205948168962618 r[5,4] + 2.8 r[5,6]
   + 4.965883607174055 r[6,1] + 3.22490309931942 r[6,2]
   + 6.378871373526825 r[6,3] + 6.060528029800704 r[6,4] + 2.8 r[6,5]
Subject To
 flow_cons_inner_nodes[2]: y[0,2] + y[1,2] - y[2,0] - y[2,1] - y[2,3]
   - y[2,4] - y[2,5] - y[2,6] + y[3,2] + y[4,2] + y[5,2] + y[6,2] = 0
 flow_cons_inner_nodes[3]: y[1,3] + y[2,3] - y[3,1] - y[3,2] - y[3,4]
   - y[3,5] - y[3,6] + y[4,3] + y[5,3] + y[6,3] = 0
 flow_cons_inner_nodes[4]: y[0,4] + y[1,4] + y[2,4] + y[3,4] - y[4,0]
   - y[4,1] - y[4,2] - y[4,3] - y[4,5] - y[4,6] + y[5,4] + y[6,4] = 0
 flow_cons_inner_nodes[5]: y[1,5] + y[2,5] + y[3,5] + y[4,5] - y[5,1]
   - y[5,2] - y[5,3] - y[5,4] - y[5,6] + y[6,5] = 0
 flow_cons_inner_nodes[6]: y[1,6] + y[2,6] + y[3,6] + y[4,6] + y[5,6]
   - y[6,1] - y[6,2] - y[6,3] - y[6,4] - y[6,5] = 0
 flow_cons_source: y[0,2] + y[0,4] - y[2,0] - y[4,0] = 1
 flow_cons_target: - y[1,2] - y[1,3] - y[1,4] - y[1,5] - y[1,6] + y[2,1]
   + y[3,1] + y[4,1] + y[5,1] + y[6,1] = 1
 primal_lower: 2.808269788551346 x[0,2] + 2.101700469530332 x[0,4]
   + 1.795948539887844 x[1,2] + 0.9847847368081092 x[1,3]
   + 2.532046622264603 x[1,4] + 0.00399640902247344 x[1,5]
   + 1.545188610443254 x[1,6] + 0.8669924803056855 x[2,0]
   + 2.810653419601264 x[2,1] + 0.5274673752664604 x[2,3]
   + 1.662854482053056 x[2,4] + 0.0268366430553976 x[2,5]
   + 2.108235888896431 x[2,6] + 3.139795334290657 x[3,1]
   + 2.754804580276368 x[3,2] + 3.173392278687967 x[3,4]
   + 0.3084428906605919 x[3,5] + 2.574696410340225 x[3,6]
   + 2.619465204153391 x[4,0] + 1.814668796989336 x[4,1]
   + 2.252674638048427 x[4,2] + 0.8542274196872259 x[4,3]
   + 0.6268473052214949 x[4,5] + 1.881819155191615 x[4,6]
   + 2.728341062028788 x[5,1] + 1.528718569821627 x[5,2]
   + 2.115516083612333 x[5,3] + 1.590329061079967 x[5,4]
   + 0.1553520490805939 x[5,6] + 1.719803000898516 x[6,1]
   + 0.976677584671849 x[6,2] + 3.477215485374902 x[6,3]
   + 0.7829910192772982 x[6,4] + 3.300944134905525 x[6,5] + 22 u[0,2]
   + 71 u[0,4] + 85 u[1,2] + 62 u[1,3] + 43 u[1,4] + 56 u[1,5] + 80 u[1,6]
   + 58 u[2,0] + 80 u[2,1] + 53 u[2,3] + 30 u[2,4] + 10 u[2,5] + 23 u[2,6]
   + 7 u[3,1] + 39 u[3,2] + 23 u[3,4] + 60 u[3,5] + 59 u[3,6] + 8 u[4,0]
   + 25 u[4,1] + 36 u[4,2] + 38 u[4,3] + 39 u[4,5] + 33 u[4,6] + 43 u[5,1]
   + 27 u[5,2] + 21 u[5,3] + 46 u[5,4] + 20 u[5,6] + 6 u[6,1] + 40 u[6,2]
   + 22 u[6,3] + 86 u[6,4] + 68 u[6,5] <= 129
 mccormick1[0,2]: - u[0,2] + r[0,2] <= 0
 mccormick1[0,4]: - u[0,4] + r[0,4] <= 0
 mccormick1[1,2]: - u[1,2] + r[1,2] <= 0
 mccormick1[1,3]: - u[1,3] + r[1,3] <= 0
 mccormick1[1,4]: - u[1,4] + r[1,4] <= 0
 mccormick1[1,5]: - u[1,5] + r[1,5] <= 0
 mccormick1[1,6]: - u[1,6] + r[1,6] <= 0
 mccormick1[2,0]: - u[2,0] + r[2,0] <= 0
 mccormick1[2,1]: - u[2,1] + r[2,1] <= 0
 mccormick1[2,3]: - u[2,3] + r[2,3] <= 0
 mccormick1[2,4]: - u[2,4] + r[2,4] <= 0
 mccormick1[2,5]: - u[2,5] + r[2,5] <= 0
 mccormick1[2,6]: - u[2,6] + r[2,6] <= 0
 mccormick1[3,1]: - u[3,1] + r[3,1] <= 0
 mccormick1[3,2]: - u[3,2] + r[3,2] <= 0
 mccormick1[3,4]: - u[3,4] + r[3,4] <= 0
 mccormick1[3,5]: - u[3,5] + r[3,5] <= 0
 mccormick1[3,6]: - u[3,6] + r[3,6] <= 0
 mccormick1[4,0]: - u[4,0] + r[4,0] <= 0
 mccormick1[4,1]: - u[4,1] + r[4,1] <= 0
 mccormick1[4,2]: - u[4,2] + r[4,2] <= 0
 mccormick1[4,3]: - u[4,3] + r[4,3] <= 0
 mccormick1[4,5]: - u[4,5] + r[4,5] <= 0
 mccormick1[4,6]: - u[4,6] + r[4,6] <= 0
 mccormick1[5,1]: - u[5,1] + r[5,1] <= 0
 mccormick1[5,2]: - u[5,2] + r[5,2] <= 0
 mccormick1[5,3]: - u[5,3] + r[5,3] <= 0
 mccormick1[5,4]: - u[5,4] + r[5,4] <= 0
 mccormick1[5,6]: - u[5,6] + r[5,6] <= 0
 mccormick1[6,1]: - u[6,1] + r[6,1] <= 0
 mccormick1[6,2]: - u[6,2] + r[6,2] <= 0
 mccormick1[6,3]: - u[6,3] + r[6,3] <= 0
 mccormick1[6,4]: - u[6,4] + r[6,4] <= 0
 mccormick1[6,5]: - u[6,5] + r[6,5] <= 0
 mccormick2[0,2]: - y[0,2] + r[0,2] <= 0
 mccormick2[0,4]: - y[0,4] + r[0,4] <= 0
 mccormick2[1,2]: - y[1,2] + r[1,2] <= 0
 mccormick2[1,3]: - y[1,3] + r[1,3] <= 0
 mccormick2[1,4]: - y[1,4] + r[1,4] <= 0
 mccormick2[1,5]: - y[1,5] + r[1,5] <= 0
 mccormick2[1,6]: - y[1,6] + r[1,6] <= 0
 mccormick2[2,0]: - y[2,0] + r[2,0] <= 0
 mccormick2[2,1]: - y[2,1] + r[2,1] <= 0
 mccormick2[2,3]: - y[2,3] + r[2,3] <= 0
 mccormick2[2,4]: - y[2,4] + r[2,4] <= 0
 mccormick2[2,5]: - y[2,5] + r[2,5] <= 0
 mccormick2[2,6]: - y[2,6] + r[2,6] <= 0
 mccormick2[3,1]: - y[3,1] + r[3,1] <= 0
 mccormick2[3,2]: - y[3,2] + r[3,2] <= 0
 mccormick2[3,4]: - y[3,4] + r[3,4] <= 0
 mccormick2[3,5]: - y[3,5] + r[3,5] <= 0
 mccormick2[3,6]: - y[3,6] + r[3,6] <= 0
 mccormick2[4,0]: - y[4,0] + r[4,0] <= 0
 mccormick2[4,1]: - y[4,1] + r[4,1] <= 0
 mccormick2[4,2]: - y[4,2] + r[4,2] <= 0
 mccormick2[4,3]: - y[4,3] + r[4,3] <= 0
 mccormick2[4,5]: - y[4,5] + r[4,5] <= 0
 mccormick2[4,6]: - y[4,6] + r[4,6] <= 0
 mccormick2[5,1]: - y[5,1] + r[5,1] <= 0
 mccormick2[5,2]: - y[5,2] + r[5,2] <= 0
 mccormick2[5,3]: - y[5,3] + r[5,3] <= 0
 mccormick2[5,4]: - y[5,4] + r[5,4] <= 0
 mccormick2[5,6]: - y[5,6] + r[5,6] <= 0
 mccormick2[6,1]: - y[6,1] + r[6,1] <= 0
 mccormick2[6,2]: - y[6,2] + r[6,2] <= 0
 mccormick2[6,3]: - y[6,3] + r[6,3] <= 0
 mccormick2[6,4]: - y[6,4] + r[6,4] <= 0
 mccormick2[6,5]: - y[6,5] + r[6,5] <= 0
 mccormick3[0,2]: - y[0,2] - u[0,2] + r[0,2] >= -1
 mccormick3[0,4]: - y[0,4] - u[0,4] + r[0,4] >= -1
 mccormick3[1,2]: - y[1,2] - u[1,2] + r[1,2] >= -1
 mccormick3[1,3]: - y[1,3] - u[1,3] + r[1,3] >= -1
 mccormick3[1,4]: - y[1,4] - u[1,4] + r[1,4] >= -1
 mccormick3[1,5]: - y[1,5] - u[1,5] + r[1,5] >= -1
 mccormick3[1,6]: - y[1,6] - u[1,6] + r[1,6] >= -1
 mccormick3[2,0]: - y[2,0] - u[2,0] + r[2,0] >= -1
 mccormick3[2,1]: - y[2,1] - u[2,1] + r[2,1] >= -1
 mccormick3[2,3]: - y[2,3] - u[2,3] + r[2,3] >= -1
 mccormick3[2,4]: - y[2,4] - u[2,4] + r[2,4] >= -1
 mccormick3[2,5]: - y[2,5] - u[2,5] + r[2,5] >= -1
 mccormick3[2,6]: - y[2,6] - u[2,6] + r[2,6] >= -1
 mccormick3[3,1]: - y[3,1] - u[3,1] + r[3,1] >= -1
 mccormick3[3,2]: - y[3,2] - u[3,2] + r[3,2] >= -1
 mccormick3[3,4]: - y[3,4] - u[3,4] + r[3,4] >= -1
 mccormick3[3,5]: - y[3,5] - u[3,5] + r[3,5] >= -1
 mccormick3[3,6]: - y[3,6] - u[3,6] + r[3,6] >= -1
 mccormick3[4,0]: - y[4,0] - u[4,0] + r[4,0] >= -1
 mccormick3[4,1]: - y[4,1] - u[4,1] + r[4,1] >= -1
 mccormick3[4,2]: - y[4,2] - u[4,2] + r[4,2] >= -1
 mccormick3[4,3]: - y[4,3] - u[4,3] + r[4,3] >= -1
 mccormick3[4,5]: - y[4,5] - u[4,5] + r[4,5] >= -1
 mccormick3[4,6]: - y[4,6] - u[4,6] + r[4,6] >= -1
 mccormick3[5,1]: - y[5,1] - u[5,1] + r[5,1] >= -1
 mccormick3[5,2]: - y[5,2] - u[5,2] + r[5,2] >= -1
 mccormick3[5,3]: - y[5,3] - u[5,3] + r[5,3] >= -1
 mccormick3[5,4]: - y[5,4] - u[5,4] + r[5,4] >= -1
 mccormick3[5,6]: - y[5,6] - u[5,6] + r[5,6] >= -1
 mccormick3[6,1]: - y[6,1] - u[6,1] + r[6,1] >= -1
 mccormick3[6,2]: - y[6,2] - u[6,2] + r[6,2] >= -1
 mccormick3[6,3]: - y[6,3] - u[6,3] + r[6,3] >= -1
 mccormick3[6,4]: - y[6,4] - u[6,4] + r[6,4] >= -1
 mccormick3[6,5]: - y[6,5] - u[6,5] + r[6,5] >= -1
Bounds
Binaries
 y[0,2] y[0,4] y[1,2] y[1,3] y[1,4] y[1,5] y[1,6] y[2,0] y[2,1] y[2,3]
 y[2,4] y[2,5] y[2,6] y[3,1] y[3,2] y[3,4] y[3,5] y[3,6] y[4,0] y[4,1]
 y[4,2] y[4,3] y[4,5] y[4,6] y[5,1] y[5,2] y[5,3] y[5,4] y[5,6] y[6,1]
 y[6,2] y[6,3] y[6,4] y[6,5] x[0,2] x[0,4] x[1,2] x[1,3] x[1,4] x[1,5]
 x[1,6] x[2,0] x[2,1] x[2,3] x[2,4] x[2,5] x[2,6] x[3,1] x[3,2] x[3,4]
 x[3,5] x[3,6] x[4,0] x[4,1] x[4,2] x[4,3] x[4,5] x[4,6] x[5,1] x[5,2]
 x[5,3] x[5,4] x[5,6] x[6,1] x[6,2] x[6,3] x[6,4] x[6,5] u[0,2] u[0,4]
 u[1,2] u[1,3] u[1,4] u[1,5] u[1,6] u[2,0] u[2,1] u[2,3] u[2,4] u[2,5]
 u[2,6] u[3,1] u[3,2] u[3,4] u[3,5] u[3,6] u[4,0] u[4,1] u[4,2] u[4,3]
 u[4,5] u[4,6] u[5,1] u[5,2] u[5,3] u[5,4] u[5,6] u[6,1] u[6,2] u[6,3]
 u[6,4] u[6,5] r[0,2] r[0,4] r[1,2] r[1,3] r[1,4] r[1,5] r[1,6] r[2,0]
 r[2,1] r[2,3] r[2,4] r[2,5] r[2,6] r[3,1] r[3,2] r[3,4] r[3,5] r[3,6]
 r[4,0] r[4,1] r[4,2] r[4,3] r[4,5] r[4,6] r[5,1] r[5,2] r[5,3] r[5,4]
 r[5,6] r[6,1] r[6,2] r[6,3] r[6,4] r[6,5]
End
