instances/shortest_path/discrete/shortest_path_7_16.mps
* Signature: 0x917f3227506394b6
NAME nohadani_7_16
ROWS
 N  OBJ
 E  flow_cons_inner_nodes[0]
 E  flow_cons_inner_nodes[3]
 E  flow_cons_inner_nodes[4]
 E  flow_cons_inner_nodes[5]
 E  flow_cons_inner_nodes[6]
 E  flow_cons_source
 E  flow_cons_target
 L  primal_lower
 L  mccormick1[0,2]
 L  mccormick1[0,3]
 L  mccormick1[0,4]
 L  mccormick1[0,5]
 L  mccormick1[0,6]
 L  mccormick1[1,4]
 L  mccormick1[1,5]
 L  mccormick1[1,6]
 L  mccormick1[2,0]
 L  mccormick1[2,4]
 L  mccormick1[2,5]
 L  mccormick1[2,6]
 L  mccormick1[3,0]
 L  mccormick1[3,4]
 L  mccormick1[3,5]
 L  mccormick1[3,6]
 L  mccormick1[4,0]
 L  mccormick1[4,1]
 L  mccormick1[4,2]
 L  mccormick1[4,3]
 L  mccormick1[4,5]
 L  mccormick1[4,6]
 L  mccormick1[5,0]
 L  mccormick1[5,1]
 L  mccormick1[5,2]
 L  mccormick1[5,3]
 L  mccormick1[5,4]
 L  mccormick1[5,6]
 L  mccormick1[6,0]
 L  mccormick1[6,1]
 L  mccormick1[6,2]
 L  mccormick1[6,3]
 L  mccormick1[6,4]
 L  mccormick1[6,5]
 L  mccormick2[0,2]
 L  mccormick2[0,3]
 L  mccormick2[0,4]
 L  mccormick2[0,5]
 L  mccormick2[0,6]
 L  mccormick2[1,4]
 L  mccormick2[1,5]
 L  mccormick2[1,6]
 L  mccormick2[2,0]
 L  mccormick2[2,4]
 L  mccormick2[2,5]
 L  mccormick2[2,6]
 L  mccormick2[3,0]
 L  mccormick2[3,4]
 L  mccormick2[3,5]
 L  mccormick2[3,6]
 L  mccormick2[4,0]
 L  mccormick2[4,1]
 L  mccormick2[4,2]
 L  mccormick2[4,3]
 L  mccormick2[4,5]
 L  mccormick2[4,6]
 L  mccormick2[5,0]
 L  mccormick2[5,1]
 L  mccormick2[5,2]
 L  mccormick2[5,3]
 L  mccormick2[5,4]
 L  mccormick2[5,6]
 L  mccormick2[6,0]
 L  mccormick2[6,1]
 L  mccormick2[6,2]
 L  mccormick2[6,3]
 L  mccormick2[6,4]
 L  mccormick2[6,5]
 G  mccormick3[0,2]
 G  mccormick3[0,3]
 G  mccormick3[0,4]
 G  mccormick3[0,5]
 G  mccormick3[0,6]
 G  mccormick3[1,4]
 G  mccormick3[1,5]
 G  mccormick3[1,6]
 G  mccormick3[2,0]
 G  mccormick3[2,4]
 G  mccormick3[2,5]
 G  mccormick3[2,6]
 G  mccormick3[3,0]
 G  mccormick3[3,4]
 G  mccormick3[3,5]
 G  mccormick3[3,6]
 G  mccormick3[4,0]
 G  mccormick3[4,1]
 G  mccormick3[4,2]
 G  mccormick3[4,3]
 G  mccormick3[4,5]
 G  mccormick3[4,6]
 G  mccormick3[5,0]
 G  mccormick3[5,1]
 G  mccormick3[5,2]
 G  mccormick3[5,3]
 G  mccormick3[5,4]
 G  mccormick3[5,6]
 G  mccormick3[6,0]
 G  mccormick3[6,1]
 G  mccormick3[6,2]
 G  mccormick3[6,3]
 G  mccormick3[6,4]
 G  mccormick3[6,5]
COLUMNS
    MARKER    'MARKER'                 'INTORG'
    y[0,2]    OBJ       8
    y[0,2]    flow_cons_inner_nodes[0]  -1
    y[0,2]    flow_cons_target  1
    y[0,2]    mccormick2[0,2]  -1
    y[0,2]    mccormick3[0,2]  -1
    y[0,3]    OBJ       69.01
    y[0,3]    flow_cons_inner_nodes[0]  -1
    y[0,3]    flow_cons_inner_nodes[3]  1
    y[0,3]    mccormick2[0,3]  -1
    y[0,3]    mccormick3[0,3]  -1
    y[0,4]    OBJ       31.06
    y[0,4]    flow_cons_inner_nodes[0]  -1
    y[0,4]    flow_cons_inner_nodes[4]  1
    y[0,4]    mccormick2[0,4]  -1
    y[0,4]    mccormick3[0,4]  -1
    y[0,5]    OBJ       31.02
    y[0,5]    flow_cons_inner_nodes[0]  -1
    y[0,5]    flow_cons_inner_nodes[5]  1
    y[0,5]    mccormick2[0,5]  -1
    y[0,5]    mccormick3[0,5]  -1
    y[0,6]    OBJ       52.01
    y[0,6]    flow_cons_inner_nodes[0]  -1
    y[0,6]    flow_cons_inner_nodes[6]  1
    y[0,6]    mccormick2[0,6]  -1
    y[0,6]    mccormick3[0,6]  -1
    y[1,4]    OBJ       53.01
    y[1,4]    flow_cons_inner_nodes[4]  1
    y[1,4]    flow_cons_source  1
    y[1,4]    mccormick2[1,4]  -1
    y[1,4]    mccormick3[1,4]  -1
    y[1,5]    OBJ       61.03
    y[1,5]    flow_cons_inner_nodes[5]  1
    y[1,5]    flow_cons_source  1
    y[1,5]    mccormick2[1,5]  -1
    y[1,5]    mccormick3[1,5]  -1
    y[1,6]    OBJ       37.66
    y[1,6]    flow_cons_inner_nodes[6]  1
    y[1,6]    flow_cons_source  1
    y[1,6]    mccormick2[1,6]  -1
    y[1,6]    mccormick3[1,6]  -1
    y[2,0]    OBJ       8
    y[2,0]    flow_cons_inner_nodes[0]  1
    y[2,0]    flow_cons_target  -1
    y[2,0]    mccormick2[2,0]  -1
    y[2,0]    mccormick3[2,0]  -1
    y[2,4]    OBJ       36.07
    y[2,4]    flow_cons_inner_nodes[4]  1
    y[2,4]    flow_cons_target  -1
    y[2,4]    mccormick2[2,4]  -1
    y[2,4]    mccormick3[2,4]  -1
    y[2,5]    OBJ       38.6
    y[2,5]    flow_cons_inner_nodes[5]  1
    y[2,5]    flow_cons_target  -1
    y[2,5]    mccormick2[2,5]  -1
    y[2,5]    mccormick3[2,5]  -1
    y[2,6]    OBJ       58.52
    y[2,6]    flow_cons_inner_nodes[6]  1
    y[2,6]    flow_cons_target  -1
    y[2,6]    mccormick2[2,6]  -1
    y[2,6]    mccormick3[2,6]  -1
    y[3,0]    OBJ       69.01
    y[3,0]    flow_cons_inner_nodes[0]  1
    y[3,0]    flow_cons_inner_nodes[3]  -1
    y[3,0]    mccormick2[3,0]  -1
    y[3,0]    mccormick3[3,0]  -1
    y[3,4]    OBJ       58.59
    y[3,4]    flow_cons_inner_nodes[3]  -1
    y[3,4]    flow_cons_inner_nodes[4]  1
    y[3,4]    mccormick2[3,4]  -1
    y[3,4]    mccormick3[3,4]  -1
    y[3,5]    OBJ       41.76
    y[3,5]    flow_cons_inner_nodes[3]  -1
    y[3,5]    flow_cons_inner_nodes[5]  1
    y[3,5]    mccormick2[3,5]  -1
    y[3,5]    mccormick3[3,5]  -1
    y[3,6]    OBJ       43.28
    y[3,6]    flow_cons_inner_nodes[3]  -1
    y[3,6]    flow_cons_inner_nodes[6]  1
    y[3,6]    mccormick2[3,6]  -1
    y[3,6]    mccormick3[3,6]  -1
    y[4,0]    OBJ       31.06
    y[4,0]    flow_cons_inner_nodes[0]  1
    y[4,0]    flow_cons_inner_nodes[4]  -1
    y[4,0]    mccormick2[4,0]  -1
    y[4,0]    mccormick3[4,0]  -1
    y[4,1]    OBJ       53.01
    y[4,1]    flow_cons_inner_nodes[4]  -1
    y[4,1]    flow_cons_source  -1
    y[4,1]    mccormick2[4,1]  -1
    y[4,1]    mccormick3[4,1]  -1
    y[4,2]    OBJ       36.07
    y[4,2]    flow_cons_inner_nodes[4]  -1
    y[4,2]    flow_cons_target  1
    y[4,2]    mccormick2[4,2]  -1
    y[4,2]    mccormick3[4,2]  -1
    y[4,3]    OBJ       58.59
    y[4,3]    flow_cons_inner_nodes[3]  1
    y[4,3]    flow_cons_inner_nodes[4]  -1
    y[4,3]    mccormick2[4,3]  -1
    y[4,3]    mccormick3[4,3]  -1
    y[4,5]    OBJ       19.21
    y[4,5]    flow_cons_inner_nodes[4]  -1
    y[4,5]    flow_cons_inner_nodes[5]  1
    y[4,5]    mccormick2[4,5]  -1
    y[4,5]    mccormick3[4,5]  -1
    y[4,6]    OBJ       24.74
    y[4,6]    flow_cons_inner_nodes[4]  -1
    y[4,6]    flow_cons_inner_nodes[6]  1
    y[4,6]    mccormick2[4,6]  -1
    y[4,6]    mccormick3[4,6]  -1
    y[5,0]    OBJ       31.02
    y[5,0]    flow_cons_inner_nodes[0]  1
    y[5,0]    flow_cons_inner_nodes[5]  -1
    y[5,0]    mccormick2[5,0]  -1
    y[5,0]    mccormick3[5,0]  -1
    y[5,1]    OBJ       61.03
    y[5,1]    flow_cons_inner_nodes[5]  -1
    y[5,1]    flow_cons_source  -1
    y[5,1]    mccormick2[5,1]  -1
    y[5,1]    mccormick3[5,1]  -1
    y[5,2]    OBJ       38.6
    y[5,2]    flow_cons_inner_nodes[5]  -1
    y[5,2]    flow_cons_target  1
    y[5,2]    mccormick2[5,2]  -1
    y[5,2]    mccormick3[5,2]  -1
    y[5,3]    OBJ       41.76
    y[5,3]    flow_cons_inner_nodes[3]  1
    y[5,3]    flow_cons_inner_nodes[5]  -1
    y[5,3]    mccormick2[5,3]  -1
    y[5,3]    mccormick3[5,3]  -1
    y[5,4]    OBJ       19.21
    y[5,4]    flow_cons_inner_nodes[4]  1
    y[5,4]    flow_cons_inner_nodes[5]  -1
    y[5,4]    mccormick2[5,4]  -1
    y[5,4]    mccormick3[5,4]  -1
    y[5,6]    OBJ       24.19
    y[5,6]    flow_cons_inner_nodes[5]  -1
    y[5,6]    flow_cons_inner_nodes[6]  1
    y[5,6]    mccormick2[5,6]  -1
    y[5,6]    mccormick3[5,6]  -1
    y[6,0]    OBJ       52.01
    y[6,0]    flow_cons_inner_nodes[0]  1
    y[6,0]    flow_cons_inner_nodes[6]  -1
    y[6,0]    mccormick2[6,0]  -1
    y[6,0]    mccormick3[6,0]  -1
    y[6,1]    OBJ       37.66
    y[6,1]    flow_cons_inner_nodes[6]  -1
    y[6,1]    flow_cons_source  -1
    y[6,1]    mccormick2[6,1]  -1
    y[6,1]    mccormick3[6,1]  -1
    y[6,2]    OBJ       58.52
    y[6,2]    flow_cons_inner_nodes[6]  -1
    y[6,2]    flow_cons_target  1
    y[6,2]    mccormick2[6,2]  -1
    y[6,2]    mccormick3[6,2]  -1
    y[6,3]    OBJ       43.28
    y[6,3]    flow_cons_inner_nodes[3]  1
    y[6,3]    flow_cons_inner_nodes[6]  -1
    y[6,3]    mccormick2[6,3]  -1
    y[6,3]    mccormick3[6,3]  -1
    y[6,4]    OBJ       24.74
    y[6,4]    flow_cons_inner_nodes[4]  1
    y[6,4]    flow_cons_inner_nodes[6]  -1
    y[6,4]    mccormick2[6,4]  -1
    y[6,4]    mccormick3[6,4]  -1
    y[6,5]    OBJ       24.19
    y[6,5]    flow_cons_inner_nodes[5]  1
    y[6,5]    flow_cons_inner_nodes[6]  -1
    y[6,5]    mccormick2[6,5]  -1
    y[6,5]    mccormick3[6,5]  -1
    x[0,2]    OBJ       1
    x[0,2]    primal_lower  1.49
    x[0,3]    OBJ       1
    x[0,3]    primal_lower  1.84
    x[0,4]    OBJ       1
    x[0,4]    primal_lower  2.03
    x[0,5]    OBJ       1
    x[0,5]    primal_lower  0.31
    x[0,6]    OBJ       1
    x[0,6]    primal_lower  2.34
    x[1,4]    OBJ       1
    x[1,4]    primal_lower  1.18
    x[1,5]    OBJ       1
    x[1,5]    primal_lower  1.26
    x[1,6]    OBJ       1
    x[1,6]    primal_lower  1.53
    x[2,0]    OBJ       1
    x[2,0]    primal_lower  3.34
    x[2,4]    OBJ       1
    x[2,4]    primal_lower  3.96
    x[2,5]    OBJ       1
    x[2,5]    primal_lower  3.23
    x[2,6]    OBJ       1
    x[2,6]    primal_lower  1.56
    x[3,0]    OBJ       1
    x[3,0]    primal_lower  0.67
    x[3,4]    OBJ       1
    x[3,4]    primal_lower  2.24
    x[3,5]    OBJ       1
    x[3,5]    primal_lower  3.19
    x[3,6]    OBJ       1
    x[3,6]    primal_lower  1.23
    x[4,0]    OBJ       1
    x[4,0]    primal_lower  2.67
    x[4,1]    OBJ       1
    x[4,1]    primal_lower  1.21
    x[4,2]    OBJ       1
    x[4,2]    primal_lower  0.13
    x[4,3]    OBJ       1
    x[4,3]    primal_lower  3.88
    x[4,5]    OBJ       1
    x[4,5]    primal_lower  0.62
    x[4,6]    OBJ       1
    x[4,6]    primal_lower  1.14
    x[5,0]    OBJ       1
    x[5,0]    primal_lower  2.35
    x[5,1]    OBJ       1
    x[5,1]    primal_lower  2.26
    x[5,2]    OBJ       1
    x[5,2]    primal_lower  0.32
    x[5,3]    OBJ       1
    x[5,3]    primal_lower  0.67
    x[5,4]    OBJ       1
    x[5,4]    primal_lower  2.97
    x[5,6]    OBJ       1
    x[5,6]    primal_lower  0.5
    x[6,0]    OBJ       1
    x[6,0]    primal_lower  1.5
    x[6,1]    OBJ       1
    x[6,1]    primal_lower  0.06
    x[6,2]    OBJ       1
    x[6,2]    primal_lower  2.11
    x[6,3]    OBJ       1
    x[6,3]    primal_lower  0.98
    x[6,4]    OBJ       1
    x[6,4]    primal_lower  2.07
    x[6,5]    OBJ       1
    x[6,5]    primal_lower  1.52
    u[0,2]    primal_lower  36
    u[0,2]    mccormick1[0,2]  -1
    u[0,2]    mccormick3[0,2]  -1
    u[0,3]    primal_lower  8
    u[0,3]    mccormick1[0,3]  -1
    u[0,3]    mccormick3[0,3]  -1
    u[0,4]    primal_lower  46
    u[0,4]    mccormick1[0,4]  -1
    u[0,4]    mccormick3[0,4]  -1
    u[0,5]    primal_lower  75
    u[0,5]    mccormick1[0,5]  -1
    u[0,5]    mccormick3[0,5]  -1
    u[0,6]    primal_lower  64
    u[0,6]    mccormick1[0,6]  -1
    u[0,6]    mccormick3[0,6]  -1
    u[1,4]    primal_lower  54
    u[1,4]    mccormick1[1,4]  -1
    u[1,4]    mccormick3[1,4]  -1
    u[1,5]    primal_lower  9
    u[1,5]    mccormick1[1,5]  -1
    u[1,5]    mccormick3[1,5]  -1
    u[1,6]    primal_lower  76
    u[1,6]    mccormick1[1,6]  -1
    u[1,6]    mccormick3[1,6]  -1
    u[2,0]    primal_lower  37
    u[2,0]    mccormick1[2,0]  -1
    u[2,0]    mccormick3[2,0]  -1
    u[2,4]    primal_lower  18
    u[2,4]    mccormick1[2,4]  -1
    u[2,4]    mccormick3[2,4]  -1
    u[2,5]    primal_lower  52
    u[2,5]    mccormick1[2,5]  -1
    u[2,5]    mccormick3[2,5]  -1
    u[2,6]    primal_lower  19
    u[2,6]    mccormick1[2,6]  -1
    u[2,6]    mccormick3[2,6]  -1
    u[3,0]    primal_lower  48
    u[3,0]    mccormick1[3,0]  -1
    u[3,0]    mccormick3[3,0]  -1
    u[3,4]    primal_lower  44
    u[3,4]    mccormick1[3,4]  -1
    u[3,4]    mccormick3[3,4]  -1
    u[3,5]    primal_lower  49
    u[3,5]    mccormick1[3,5]  -1
    u[3,5]    mccormick3[3,5]  -1
    u[3,6]    primal_lower  9
    u[3,6]    mccormick1[3,6]  -1
    u[3,6]    mccormick3[3,6]  -1
    u[4,0]    primal_lower  41
    u[4,0]    mccormick1[4,0]  -1
    u[4,0]    mccormick3[4,0]  -1
    u[4,1]    primal_lower  16
    u[4,1]    mccormick1[4,1]  -1
    u[4,1]    mccormick3[4,1]  -1
    u[4,2]    primal_lower  85
    u[4,2]    mccormick1[4,2]  -1
    u[4,2]    mccormick3[4,2]  -1
    u[4,3]    primal_lower  74
    u[4,3]    mccormick1[4,3]  -1
    u[4,3]    mccormick3[4,3]  -1
    u[4,5]    primal_lower  89
    u[4,5]    mccormick1[4,5]  -1
    u[4,5]    mccormick3[4,5]  -1
    u[4,6]    primal_lower  100
    u[4,6]    mccormick1[4,6]  -1
    u[4,6]    mccormick3[4,6]  -1
    u[5,0]    primal_lower  48
    u[5,0]    mccormick1[5,0]  -1
    u[5,0]    mccormick3[5,0]  -1
    u[5,1]    primal_lower  3
    u[5,1]    mccormick1[5,1]  -1
    u[5,1]    mccormick3[5,1]  -1
    u[5,2]    primal_lower  69
    u[5,2]    mccormick1[5,2]  -1
    u[5,2]    mccormick3[5,2]  -1
    u[5,3]    primal_lower  52
    u[5,3]    mccormick1[5,3]  -1
    u[5,3]    mccormick3[5,3]  -1
    u[5,4]    primal_lower  6
    u[5,4]    mccormick1[5,4]  -1
    u[5,4]    mccormick3[5,4]  -1
    u[5,6]    primal_lower  16
    u[5,6]    mccormick1[5,6]  -1
    u[5,6]    mccormick3[5,6]  -1
    u[6,0]    primal_lower  6
    u[6,0]    mccormick1[6,0]  -1
    u[6,0]    mccormick3[6,0]  -1
    u[6,1]    primal_lower  27
    u[6,1]    mccormick1[6,1]  -1
    u[6,1]    mccormick3[6,1]  -1
    u[6,2]    primal_lower  94
    u[6,2]    mccormick1[6,2]  -1
    u[6,2]    mccormick3[6,2]  -1
    u[6,3]    primal_lower  64
    u[6,3]    mccormick1[6,3]  -1
    u[6,3]    mccormick3[6,3]  -1
    u[6,4]    primal_lower  32
    u[6,4]    mccormick1[6,4]  -1
    u[6,4]    mccormick3[6,4]  -1
    u[6,5]    primal_lower  1
    u[6,5]    mccormick1[6,5]  -1
    u[6,5]    mccormick3[6,5]  -1
    r[0,2]    OBJ       0.8
    r[0,2]    mccormick1[0,2]  1
    r[0,2]    mccormick2[0,2]  1
    r[0,2]    mccormick3[0,2]  1
    r[0,3]    OBJ       6.9010000000000007e+00
    r[0,3]    mccormick1[0,3]  1
    r[0,3]    mccormick2[0,3]  1
    r[0,3]    mccormick3[0,3]  1
    r[0,4]    OBJ       3.106
    r[0,4]    mccormick1[0,4]  1
    r[0,4]    mccormick2[0,4]  1
    r[0,4]    mccormick3[0,4]  1
    r[0,5]    OBJ       3.1020000000000003e+00
    r[0,5]    mccormick1[0,5]  1
    r[0,5]    mccormick2[0,5]  1
    r[0,5]    mccormick3[0,5]  1
    r[0,6]    OBJ       5.2010000000000005e+00
    r[0,6]    mccormick1[0,6]  1
    r[0,6]    mccormick2[0,6]  1
    r[0,6]    mccormick3[0,6]  1
    r[1,4]    OBJ       5.301
    r[1,4]    mccormick1[1,4]  1
    r[1,4]    mccormick2[1,4]  1
    r[1,4]    mccormick3[1,4]  1
    r[1,5]    OBJ       6.1030000000000006e+00
    r[1,5]    mccormick1[1,5]  1
    r[1,5]    mccormick2[1,5]  1
    r[1,5]    mccormick3[1,5]  1
    r[1,6]    OBJ       3.766
    r[1,6]    mccormick1[1,6]  1
    r[1,6]    mccormick2[1,6]  1
    r[1,6]    mccormick3[1,6]  1
    r[2,0]    OBJ       0.8
    r[2,0]    mccormick1[2,0]  1
    r[2,0]    mccormick2[2,0]  1
    r[2,0]    mccormick3[2,0]  1
    r[2,4]    OBJ       3.607
    r[2,4]    mccormick1[2,4]  1
    r[2,4]    mccormick2[2,4]  1
    r[2,4]    mccormick3[2,4]  1
    r[2,5]    OBJ       3.8600000000000003e+00
    r[2,5]    mccormick1[2,5]  1
    r[2,5]    mccormick2[2,5]  1
    r[2,5]    mccormick3[2,5]  1
    r[2,6]    OBJ       5.852
    r[2,6]    mccormick1[2,6]  1
    r[2,6]    mccormick2[2,6]  1
    r[2,6]    mccormick3[2,6]  1
    r[3,0]    OBJ       6.9010000000000007e+00
    r[3,0]    mccormick1[3,0]  1
    r[3,0]    mccormick2[3,0]  1
    r[3,0]    mccormick3[3,0]  1
    r[3,4]    OBJ       5.8590000000000009e+00
    r[3,4]    mccormick1[3,4]  1
    r[3,4]    mccormick2[3,4]  1
    r[3,4]    mccormick3[3,4]  1
    r[3,5]    OBJ       4.176
    r[3,5]    mccormick1[3,5]  1
    r[3,5]    mccormick2[3,5]  1
    r[3,5]    mccormick3[3,5]  1
    r[3,6]    OBJ       4.328
    r[3,6]    mccormick1[3,6]  1
    r[3,6]    mccormick2[3,6]  1
    r[3,6]    mccormick3[3,6]  1
    r[4,0]    OBJ       3.106
    r[4,0]    mccormick1[4,0]  1
    r[4,0]    mccormick2[4,0]  1
    r[4,0]    mccormick3[4,0]  1
    r[4,1]    OBJ       5.301
    r[4,1]    mccormick1[4,1]  1
    r[4,1]    mccormick2[4,1]  1
    r[4,1]    mccormick3[4,1]  1
    r[4,2]    OBJ       3.607
    r[4,2]    mccormick1[4,2]  1
    r[4,2]    mccormick2[4,2]  1
    r[4,2]    mccormick3[4,2]  1
    r[4,3]    OBJ       5.8590000000000009e+00
    r[4,3]    mccormick1[4,3]  1
    r[4,3]    mccormick2[4,3]  1
    r[4,3]    mccormick3[4,3]  1
    r[4,5]    OBJ       1.9210000000000003e+00
    r[4,5]    mccormick1[4,5]  1
    r[4,5]    mccormick2[4,5]  1
    r[4,5]    mccormick3[4,5]  1
    r[4,6]    OBJ       2.474
    r[4,6]    mccormick1[4,6]  1
    r[4,6]    mccormick2[4,6]  1
    r[4,6]    mccormick3[4,6]  1
    r[5,0]    OBJ       3.1020000000000003e+00
    r[5,0]    mccormick1[5,0]  1
    r[5,0]    mccormick2[5,0]  1
    r[5,0]    mccormick3[5,0]  1
    r[5,1]    OBJ       6.1030000000000006e+00
    r[5,1]    mccormick1[5,1]  1
    r[5,1]    mccormick2[5,1]  1
    r[5,1]    mccormick3[5,1]  1
    r[5,2]    OBJ       3.8600000000000003e+00
    r[5,2]    mccormick1[5,2]  1
    r[5,2]    mccormick2[5,2]  1
    r[5,2]    mccormick3[5,2]  1
    r[5,3]    OBJ       4.176
    r[5,3]    mccormick1[5,3]  1
    r[5,3]    mccormick2[5,3]  1
    r[5,3]    mccormick3[5,3]  1
    r[5,4]    OBJ       1.9210000000000003e+00
    r[5,4]    mccormick1[5,4]  1
    r[5,4]    mccormick2[5,4]  1
    r[5,4]    mccormick3[5,4]  1
    r[5,6]    OBJ       2.4190000000000005e+00
    r[5,6]    mccormick1[5,6]  1
    r[5,6]    mccormick2[5,6]  1
    r[5,6]    mccormick3[5,6]  1
    r[6,0]    OBJ       5.2010000000000005e+00
    r[6,0]    mccormick1[6,0]  1
    r[6,0]    mccormick2[6,0]  1
    r[6,0]    mccormick3[6,0]  1
    r[6,1]    OBJ       3.766
    r[6,1]    mccormick1[6,1]  1
    r[6,1]    mccormick2[6,1]  1
    r[6,1]    mccormick3[6,1]  1
    r[6,2]    OBJ       5.852
    r[6,2]    mccormick1[6,2]  1
    r[6,2]    mccormick2[6,2]  1
    r[6,2]    mccormick3[6,2]  1
    r[6,3]    OBJ       4.328
    r[6,3]    mccormick1[6,3]  1
    r[6,3]    mccormick2[6,3]  1
    r[6,3]    mccormick3[6,3]  1
    r[6,4]    OBJ       2.474
    r[6,4]    mccormick1[6,4]  1
    r[6,4]    mccormick2[6,4]  1
    r[6,4]    mccormick3[6,4]  1
    r[6,5]    OBJ       2.4190000000000005e+00
    r[6,5]    mccormick1[6,5]  1
    r[6,5]    mccormick2[6,5]  1
    r[6,5]    mccormick3[6,5]  1
    MARKER    'MARKER'                 'INTEND'
RHS
    RHS1      flow_cons_source  1
    RHS1      flow_cons_target  1
    RHS1      primal_lower  139
    RHS1      mccormick3[0,2]  -1
    RHS1      mccormick3[0,3]  -1
    RHS1      mccormick3[0,4]  -1
    RHS1      mccormick3[0,5]  -1
    RHS1      mccormick3[0,6]  -1
    RHS1      mccormick3[1,4]  -1
    RHS1      mccormick3[1,5]  -1
    RHS1      mccormick3[1,6]  -1
    RHS1      mccormick3[2,0]  -1
    RHS1      mccormick3[2,4]  -1
    RHS1      mccormick3[2,5]  -1
    RHS1      mccormick3[2,6]  -1
    RHS1      mccormick3[3,0]  -1
    RHS1      mccormick3[3,4]  -1
    RHS1      mccormick3[3,5]  -1
    RHS1      mccormick3[3,6]  -1
    RHS1      mccormick3[4,0]  -1
    RHS1      mccormick3[4,1]  -1
    RHS1      mccormick3[4,2]  -1
    RHS1      mccormick3[4,3]  -1
    RHS1      mccormick3[4,5]  -1
    RHS1      mccormick3[4,6]  -1
    RHS1      mccormick3[5,0]  -1
    RHS1      mccormick3[5,1]  -1
    RHS1      mccormick3[5,2]  -1
    RHS1      mccormick3[5,3]  -1
    RHS1      mccormick3[5,4]  -1
    RHS1      mccormick3[5,6]  -1
    RHS1      mccormick3[6,0]  -1
    RHS1      mccormick3[6,1]  -1
    RHS1      mccormick3[6,2]  -1
    RHS1      mccormick3[6,3]  -1
    RHS1      mccormick3[6,4]  -1
    RHS1      mccormick3[6,5]  -1
BOUNDS
 BV BND1      y[0,2]  
 BV BND1      y[0,3]  
 BV BND1      y[0,4]  
 BV BND1      y[0,5]  
 BV BND1      y[0,6]  
 BV BND1      y[1,4]  
 BV BND1      y[1,5]  
 BV BND1      y[1,6]  
 BV BND1      y[2,0]  
 BV BND1      y[2,4]  
 BV BND1      y[2,5]  
 BV BND1      y[2,6]  
 BV BND1      y[3,0]  
 BV BND1      y[3,4]  
 BV BND1      y[3,5]  
 BV BND1      y[3,6]  
 BV BND1      y[4,0]  
 BV BND1      y[4,1]  
 BV BND1      y[4,2]  
 BV BND1      y[4,3]  
 BV BND1      y[4,5]  
 BV BND1      y[4,6]  
 BV BND1      y[5,0]  
 BV BND1      y[5,1]  
 BV BND1      y[5,2]  
 BV BND1      y[5,3]  
 BV BND1      y[5,4]  
 BV BND1      y[5,6]  
 BV BND1      y[6,0]  
 BV BND1      y[6,1]  
 BV BND1      y[6,2]  
 BV BND1      y[6,3]  
 BV BND1      y[6,4]  
 BV BND1      y[6,5]  
 BV BND1      x[0,2]  
 BV BND1      x[0,3]  
 BV BND1      x[0,4]  
 BV BND1      x[0,5]  
 BV BND1      x[0,6]  
 BV BND1      x[1,4]  
 BV BND1      x[1,5]  
 BV BND1      x[1,6]  
 BV BND1      x[2,0]  
 BV BND1      x[2,4]  
 BV BND1      x[2,5]  
 BV BND1      x[2,6]  
 BV BND1      x[3,0]  
 BV BND1      x[3,4]  
 BV BND1      x[3,5]  
 BV BND1      x[3,6]  
 BV BND1      x[4,0]  
 BV BND1      x[4,1]  
 BV BND1      x[4,2]  
 BV BND1      x[4,3]  
 BV BND1      x[4,5]  
 BV BND1      x[4,6]  
 BV BND1      x[5,0]  
 BV BND1      x[5,1]  
 BV BND1      x[5,2]  
 BV BND1      x[5,3]  
 BV BND1      x[5,4]  
 BV BND1      x[5,6]  
 BV BND1      x[6,0]  
 BV BND1      x[6,1]  
 BV BND1      x[6,2]  
 BV BND1      x[6,3]  
 BV BND1      x[6,4]  
 BV BND1      x[6,5]  
 BV BND1      u[0,2]  
 BV BND1      u[0,3]  
 BV BND1      u[0,4]  
 BV BND1      u[0,5]  
 BV BND1      u[0,6]  
 BV BND1      u[1,4]  
 BV BND1      u[1,5]  
 BV BND1      u[1,6]  
 BV BND1      u[2,0]  
 BV BND1      u[2,4]  
 BV BND1      u[2,5]  
 BV BND1      u[2,6]  
 BV BND1      u[3,0]  
 BV BND1      u[3,4]  
 BV BND1      u[3,5]  
 BV BND1      u[3,6]  
 BV BND1      u[4,0]  
 BV BND1      u[4,1]  
 BV BND1      u[4,2]  
 BV BND1      u[4,3]  
 BV BND1      u[4,5]  
 BV BND1      u[4,6]  
 BV BND1      u[5,0]  
 BV BND1      u[5,1]  
 BV BND1      u[5,2]  
 BV BND1      u[5,3]  
 BV BND1      u[5,4]  
 BV BND1      u[5,6]  
 BV BND1      u[6,0]  
 BV BND1      u[6,1]  
 BV BND1      u[6,2]  
 BV BND1      u[6,3]  
 BV BND1      u[6,4]  
 BV BND1      u[6,5]  
 BV BND1      r[0,2]  
 BV BND1      r[0,3]  
 BV BND1      r[0,4]  
 BV BND1      r[0,5]  
 BV BND1      r[0,6]  
 BV BND1      r[1,4]  
 BV BND1      r[1,5]  
 BV BND1      r[1,6]  
 BV BND1      r[2,0]  
 BV BND1      r[2,4]  
 BV BND1      r[2,5]  
 BV BND1      r[2,6]  
 BV BND1      r[3,0]  
 BV BND1      r[3,4]  
 BV BND1      r[3,5]  
 BV BND1      r[3,6]  
 BV BND1      r[4,0]  
 BV BND1      r[4,1]  
 BV BND1      r[4,2]  
 BV BND1      r[4,3]  
 BV BND1      r[4,5]  
 BV BND1      r[4,6]  
 BV BND1      r[5,0]  
 BV BND1      r[5,1]  
 BV BND1      r[5,2]  
 BV BND1      r[5,3]  
 BV BND1      r[5,4]  
 BV BND1      r[5,6]  
 BV BND1      r[6,0]  
 BV BND1      r[6,1]  
 BV BND1      r[6,2]  
 BV BND1      r[6,3]  
 BV BND1      r[6,4]  
 BV BND1      r[6,5]  
ENDATA
