instances/shortest_path/discrete/shortest_path_7_16.kp
13187
129

[2.808269788551346 2.1017004695303316 1.7959485398878439 0.9847847368081092 2.532046622264603 0.003996409022473439 1.5451886104432537 0.8669924803056855 2.810653419601264 0.5274673752664604 1.6628544820530557 0.02683664305539761 2.1082358888964308 3.139795334290657 2.7548045802763683 3.1733922786879667 0.3084428906605919 2.5746964103402252 2.6194652041533906 1.8146687969893356 2.252674638048427 0.8542274196872259 0.6268473052214949 1.8818191551916146 2.728341062028788 1.528718569821627 2.1155160836123335 1.590329061079967 0.1553520490805939 1.7198030008985163 0.976677584671849 3.477215485374902 0.7829910192772982 3.3009441349055253]

[22 71 85 62 43 56 80 58 80 53 30 10 23 7 39 23 60 59 8 25 36 38 39 33 43 27 21 46 20 6 40 22 86 68]
